; Benchmark for LTL-sketching problem
(set-logic QF_UF)
(set-info :status unknown)
(declare-fun z_1_1 () Bool)
(declare-fun z_1_0 () Bool)
(declare-fun z_0_0 () Bool)
(declare-fun z_0_1 () Bool)
(declare-fun z_1_8 () Bool)
(declare-fun z_1_7 () Bool)
(declare-fun z_1_6 () Bool)
(declare-fun z_1_5 () Bool)
(declare-fun z_1_4 () Bool)
(declare-fun z_1_3 () Bool)
(declare-fun z_1_2 () Bool)
(declare-fun z_0_2 () Bool)
(declare-fun z_0_3 () Bool)
(declare-fun z_0_4 () Bool)
(declare-fun z_0_5 () Bool)
(declare-fun z_0_6 () Bool)
(declare-fun z_0_7 () Bool)
(declare-fun z_0_8 () Bool)
(declare-fun z_1_15 () Bool)
(declare-fun z_1_14 () Bool)
(declare-fun z_1_13 () Bool)
(declare-fun z_1_12 () Bool)
(declare-fun z_1_11 () Bool)
(declare-fun z_1_10 () Bool)
(declare-fun z_1_9 () Bool)
(declare-fun z_0_9 () Bool)
(declare-fun z_0_10 () Bool)
(declare-fun z_0_11 () Bool)
(declare-fun z_0_12 () Bool)
(declare-fun z_0_13 () Bool)
(declare-fun z_0_14 () Bool)
(declare-fun z_0_15 () Bool)
(declare-fun z_1_18 () Bool)
(declare-fun z_1_17 () Bool)
(declare-fun z_1_16 () Bool)
(declare-fun z_0_16 () Bool)
(declare-fun z_0_17 () Bool)
(declare-fun z_0_18 () Bool)
(declare-fun z_1_23 () Bool)
(declare-fun z_1_22 () Bool)
(declare-fun z_1_21 () Bool)
(declare-fun z_1_20 () Bool)
(declare-fun z_1_19 () Bool)
(declare-fun z_0_19 () Bool)
(declare-fun z_0_20 () Bool)
(declare-fun z_0_21 () Bool)
(declare-fun z_0_22 () Bool)
(declare-fun z_0_23 () Bool)
(declare-fun z_1_27 () Bool)
(declare-fun z_1_26 () Bool)
(declare-fun z_1_25 () Bool)
(declare-fun z_1_24 () Bool)
(declare-fun z_0_24 () Bool)
(declare-fun z_0_25 () Bool)
(declare-fun z_0_26 () Bool)
(declare-fun z_0_27 () Bool)
(declare-fun z_1_31 () Bool)
(declare-fun z_1_30 () Bool)
(declare-fun z_1_29 () Bool)
(declare-fun z_1_28 () Bool)
(declare-fun z_0_28 () Bool)
(declare-fun z_0_29 () Bool)
(declare-fun z_0_30 () Bool)
(declare-fun z_0_31 () Bool)
(declare-fun z_1_34 () Bool)
(declare-fun z_1_33 () Bool)
(declare-fun z_1_32 () Bool)
(declare-fun z_0_32 () Bool)
(declare-fun z_0_33 () Bool)
(declare-fun z_0_34 () Bool)
(declare-fun z_1_37 () Bool)
(declare-fun z_1_36 () Bool)
(declare-fun z_1_35 () Bool)
(declare-fun z_0_35 () Bool)
(declare-fun z_0_36 () Bool)
(declare-fun z_0_37 () Bool)
(declare-fun z_1_39 () Bool)
(declare-fun z_1_38 () Bool)
(declare-fun z_0_38 () Bool)
(declare-fun z_0_39 () Bool)
(declare-fun z_1_41 () Bool)
(declare-fun z_1_40 () Bool)
(declare-fun z_0_40 () Bool)
(declare-fun z_0_41 () Bool)
(declare-fun z_1_49 () Bool)
(declare-fun z_1_48 () Bool)
(declare-fun z_1_47 () Bool)
(declare-fun z_1_46 () Bool)
(declare-fun z_1_45 () Bool)
(declare-fun z_1_44 () Bool)
(declare-fun z_1_43 () Bool)
(declare-fun z_1_42 () Bool)
(declare-fun z_0_42 () Bool)
(declare-fun z_0_43 () Bool)
(declare-fun z_0_44 () Bool)
(declare-fun z_0_45 () Bool)
(declare-fun z_0_46 () Bool)
(declare-fun z_0_47 () Bool)
(declare-fun z_0_48 () Bool)
(declare-fun z_0_49 () Bool)
(declare-fun z_1_55 () Bool)
(declare-fun z_1_54 () Bool)
(declare-fun z_1_53 () Bool)
(declare-fun z_1_52 () Bool)
(declare-fun z_1_51 () Bool)
(declare-fun z_1_50 () Bool)
(declare-fun z_0_50 () Bool)
(declare-fun z_0_51 () Bool)
(declare-fun z_0_52 () Bool)
(declare-fun z_0_53 () Bool)
(declare-fun z_0_54 () Bool)
(declare-fun z_0_55 () Bool)
(declare-fun z_1_57 () Bool)
(declare-fun z_1_56 () Bool)
(declare-fun z_0_56 () Bool)
(declare-fun z_0_57 () Bool)
(declare-fun z_1_60 () Bool)
(declare-fun z_1_59 () Bool)
(declare-fun z_1_58 () Bool)
(declare-fun z_0_58 () Bool)
(declare-fun z_0_59 () Bool)
(declare-fun z_0_60 () Bool)
(declare-fun z_1_62 () Bool)
(declare-fun z_1_61 () Bool)
(declare-fun z_0_61 () Bool)
(declare-fun z_0_62 () Bool)
(declare-fun z_1_63 () Bool)
(declare-fun z_0_63 () Bool)
(declare-fun z_1_66 () Bool)
(declare-fun z_1_65 () Bool)
(declare-fun z_1_64 () Bool)
(declare-fun z_0_64 () Bool)
(declare-fun z_0_65 () Bool)
(declare-fun z_0_66 () Bool)
(declare-fun z_1_68 () Bool)
(declare-fun z_1_67 () Bool)
(declare-fun z_0_67 () Bool)
(declare-fun z_0_68 () Bool)
(declare-fun z_1_69 () Bool)
(declare-fun z_0_69 () Bool)
(declare-fun z_1_71 () Bool)
(declare-fun z_1_70 () Bool)
(declare-fun z_0_70 () Bool)
(declare-fun z_0_71 () Bool)
(declare-fun z_1_72 () Bool)
(declare-fun z_0_72 () Bool)
(declare-fun z_1_75 () Bool)
(declare-fun z_1_74 () Bool)
(declare-fun z_1_73 () Bool)
(declare-fun z_0_73 () Bool)
(declare-fun z_0_74 () Bool)
(declare-fun z_0_75 () Bool)
(declare-fun z_1_76 () Bool)
(declare-fun z_0_76 () Bool)
(declare-fun z_1_77 () Bool)
(declare-fun z_0_77 () Bool)
(declare-fun z_1_79 () Bool)
(declare-fun z_1_78 () Bool)
(declare-fun z_0_78 () Bool)
(declare-fun z_0_79 () Bool)
(declare-fun z_1_80 () Bool)
(declare-fun z_0_80 () Bool)
(declare-fun z_1_82 () Bool)
(declare-fun z_1_81 () Bool)
(declare-fun z_0_81 () Bool)
(declare-fun z_0_82 () Bool)
(declare-fun z_1_85 () Bool)
(declare-fun z_1_84 () Bool)
(declare-fun z_1_83 () Bool)
(declare-fun z_0_83 () Bool)
(declare-fun z_0_84 () Bool)
(declare-fun z_0_85 () Bool)
(assert
 (let (($x8 (or z_1_0 z_1_1)))
 (= z_0_0 $x8)))
(assert
 (= z_0_1 (or z_1_1 z_1_0)))
(assert
 (= z_0_2 (or z_1_2 z_1_3 z_1_4 z_1_5 z_1_6 z_1_7 z_1_8)))
(assert
 (= z_0_3 (or z_1_3 z_1_4 z_1_5 z_1_6 z_1_7 z_1_8)))
(assert
 (= z_0_4 (or z_1_4 z_1_5 z_1_6 z_1_7 z_1_8)))
(assert
 (let (($x49 (or z_1_5 z_1_6 z_1_7 z_1_8)))
 (= z_0_5 $x49)))
(assert
 (= z_0_6 (or z_1_6 z_1_7 z_1_8 z_1_5)))
(assert
 (= z_0_7 (or z_1_7 z_1_8 z_1_5 z_1_6)))
(assert
 (= z_0_8 (or z_1_8 z_1_5 z_1_6 z_1_7)))
(assert
 (= z_0_9 (or z_1_9 z_1_10 z_1_11 z_1_12 z_1_13 z_1_14 z_1_15)))
(assert
 (= z_0_10 (or z_1_10 z_1_11 z_1_12 z_1_13 z_1_14 z_1_15)))
(assert
 (= z_0_11 (or z_1_11 z_1_12 z_1_13 z_1_14 z_1_15)))
(assert
 (let (($x80 (or z_1_12 z_1_13 z_1_14 z_1_15)))
 (= z_0_12 $x80)))
(assert
 (= z_0_13 (or z_1_13 z_1_14 z_1_15 z_1_12)))
(assert
 (= z_0_14 (or z_1_14 z_1_15 z_1_12 z_1_13)))
(assert
 (= z_0_15 (or z_1_15 z_1_12 z_1_13 z_1_14)))
(assert
 (= z_0_16 (or z_1_16 z_1_17 z_1_18)))
(assert
 (= z_0_17 (or z_1_17 z_1_18)))
(assert
 (= z_0_18 (or z_1_18)))
(assert
 (= z_0_19 (or z_1_19 z_1_20 z_1_21 z_1_22 z_1_23)))
(assert
 (= z_0_20 (or z_1_20 z_1_21 z_1_22 z_1_23)))
(assert
 (let (($x119 (or z_1_21 z_1_22 z_1_23)))
 (= z_0_21 $x119)))
(assert
 (= z_0_22 (or z_1_22 z_1_23 z_1_21)))
(assert
 (= z_0_23 (or z_1_23 z_1_21 z_1_22)))
(assert
 (= z_0_24 (or z_1_24 z_1_25 z_1_26 z_1_27 z_1_0 z_1_1)))
(assert
 (= z_0_25 (or z_1_25 z_1_26 z_1_27 z_1_0 z_1_1)))
(assert
 (= z_0_26 (or z_1_26 z_1_27 z_1_0 z_1_1)))
(assert
 (= z_0_27 (or z_1_27 z_1_0 z_1_1)))
(assert
 (= z_0_28 (or z_1_28 z_1_29 z_1_30 z_1_31 z_1_23 z_1_21 z_1_22)))
(assert
 (= z_0_29 (or z_1_29 z_1_30 z_1_31 z_1_23 z_1_21 z_1_22)))
(assert
 (= z_0_30 (or z_1_30 z_1_31 z_1_23 z_1_21 z_1_22)))
(assert
 (= z_0_31 (or z_1_31 z_1_23 z_1_21 z_1_22)))
(assert
 (= z_0_32 (or z_1_32 z_1_33 z_1_34 z_1_1 z_1_0)))
(assert
 (= z_0_33 (or z_1_33 z_1_34 z_1_1 z_1_0)))
(assert
 (= z_0_34 (or z_1_34 z_1_1 z_1_0)))
(assert
 (= z_0_35 (or z_1_35 z_1_36 z_1_37)))
(assert
 (= z_0_36 (or z_1_36 z_1_37)))
(assert
 (= z_0_37 (or z_1_37)))
(assert
 (= z_0_38 (or z_1_38 z_1_39 z_1_15 z_1_12 z_1_13 z_1_14)))
(assert
 (= z_0_39 (or z_1_39 z_1_15 z_1_12 z_1_13 z_1_14)))
(assert
 (= z_0_40 (or z_1_40 z_1_41 z_1_39 z_1_15 z_1_12 z_1_13 z_1_14)))
(assert
 (= z_0_41 (or z_1_41 z_1_39 z_1_15 z_1_12 z_1_13 z_1_14)))
(assert
 (let (($x241 (or z_1_42 z_1_43 z_1_44 z_1_45 z_1_46 z_1_47 z_1_48 z_1_49)))
 (= z_0_42 $x241)))
(assert
 (= z_0_43 (or z_1_43 z_1_44 z_1_45 z_1_46 z_1_47 z_1_48 z_1_49)))
(assert
 (= z_0_44 (or z_1_44 z_1_45 z_1_46 z_1_47 z_1_48 z_1_49)))
(assert
 (= z_0_45 (or z_1_45 z_1_46 z_1_47 z_1_48 z_1_49)))
(assert
 (let (($x253 (or z_1_46 z_1_47 z_1_48 z_1_49)))
 (= z_0_46 $x253)))
(assert
 (= z_0_47 (or z_1_47 z_1_48 z_1_49 z_1_46)))
(assert
 (= z_0_48 (or z_1_48 z_1_49 z_1_46 z_1_47)))
(assert
 (= z_0_49 (or z_1_49 z_1_46 z_1_47 z_1_48)))
(assert
 (= z_0_50 (or z_1_50 z_1_51 z_1_52 z_1_53 z_1_54 z_1_55)))
(assert
 (let (($x277 (or z_1_51 z_1_52 z_1_53 z_1_54 z_1_55)))
 (= z_0_51 $x277)))
(assert
 (= z_0_52 (or z_1_52 z_1_53 z_1_54 z_1_55 z_1_51)))
(assert
 (= z_0_53 (or z_1_53 z_1_54 z_1_55 z_1_51 z_1_52)))
(assert
 (= z_0_54 (or z_1_54 z_1_55 z_1_51 z_1_52 z_1_53)))
(assert
 (= z_0_55 (or z_1_55 z_1_51 z_1_52 z_1_53 z_1_54)))
(assert
 (= z_0_56 (or z_1_56 z_1_57 z_1_4 z_1_5 z_1_6 z_1_7 z_1_8)))
(assert
 (= z_0_57 (or z_1_57 z_1_4 z_1_5 z_1_6 z_1_7 z_1_8)))
(assert
 (= z_0_58 (or z_1_58 z_1_59 z_1_60 z_1_17 z_1_18)))
(assert
 (= z_0_59 (or z_1_59 z_1_60 z_1_17 z_1_18)))
(assert
 (= z_0_60 (or z_1_60 z_1_17 z_1_18)))
(assert
 (= z_0_61 (or z_1_61 z_1_62 z_1_52 z_1_53 z_1_54 z_1_55 z_1_51)))
(assert
 (= z_0_62 (or z_1_62 z_1_52 z_1_53 z_1_54 z_1_55 z_1_51)))
(assert
 (= z_0_63 (or z_1_63 z_1_34 z_1_1 z_1_0)))
(assert
 (= z_0_64 (or z_1_64 z_1_65 z_1_66 z_1_22 z_1_23 z_1_21)))
(assert
 (= z_0_65 (or z_1_65 z_1_66 z_1_22 z_1_23 z_1_21)))
(assert
 (= z_0_66 (or z_1_66 z_1_22 z_1_23 z_1_21)))
(assert
 (= z_0_67 (or z_1_67 z_1_68 z_1_60 z_1_17 z_1_18)))
(assert
 (= z_0_68 (or z_1_68 z_1_60 z_1_17 z_1_18)))
(assert
 (= z_0_69 (or z_1_69 z_1_13 z_1_14 z_1_15 z_1_12)))
(assert
 (= z_0_70 (or z_1_70 z_1_71 z_1_49 z_1_46 z_1_47 z_1_48)))
(assert
 (= z_0_71 (or z_1_71 z_1_49 z_1_46 z_1_47 z_1_48)))
(assert
 (= z_0_72 (or z_1_72 z_1_32 z_1_33 z_1_34 z_1_1 z_1_0)))
(assert
 (let (($x401 (or z_1_73 z_1_74 z_1_75 z_1_71 z_1_49 z_1_46 z_1_47 z_1_48)))
 (= z_0_73 $x401)))
(assert
 (= z_0_74 (or z_1_74 z_1_75 z_1_71 z_1_49 z_1_46 z_1_47 z_1_48)))
(assert
 (= z_0_75 (or z_1_75 z_1_71 z_1_49 z_1_46 z_1_47 z_1_48)))
(assert
 (= z_0_76 (or z_1_76 z_1_48 z_1_49 z_1_46 z_1_47)))
(assert
 (= z_0_77 (or z_1_77 z_1_27 z_1_0 z_1_1)))
(assert
 (= z_0_78 (or z_1_78 z_1_79 z_1_16 z_1_17 z_1_18)))
(assert
 (= z_0_79 (or z_1_79 z_1_16 z_1_17 z_1_18)))
(assert
 (= z_0_80 (or z_1_80 z_1_65 z_1_66 z_1_22 z_1_23 z_1_21)))
(assert
 (let (($x448 (or z_1_81 z_1_82 z_1_44 z_1_45 z_1_46 z_1_47 z_1_48 z_1_49)))
 (= z_0_81 $x448)))
(assert
 (= z_0_82 (or z_1_82 z_1_44 z_1_45 z_1_46 z_1_47 z_1_48 z_1_49)))
(assert
 (let (($x461 (or z_1_83 z_1_84 z_1_85 z_1_45 z_1_46 z_1_47 z_1_48 z_1_49)))
 (= z_0_83 $x461)))
(assert
 (= z_0_84 (or z_1_84 z_1_85 z_1_45 z_1_46 z_1_47 z_1_48 z_1_49)))
(assert
 (= z_0_85 (or z_1_85 z_1_45 z_1_46 z_1_47 z_1_48 z_1_49)))
(assert
 z_0_0)
(assert
 z_0_1)
(assert
 z_0_2)
(assert
 z_0_8)
(assert
 z_0_9)
(assert
 z_0_11)
(assert
 z_0_16)
(assert
 z_0_17)
(assert
 (not z_0_18))
(assert
 z_0_19)
(assert
 z_0_22)
(assert
 z_0_24)
(assert
 z_0_26)
(assert
 z_0_27)
(assert
 z_0_28)
(assert
 z_0_32)
(assert
 z_0_33)
(assert
 z_0_35)
(assert
 z_0_36)
(assert
 z_0_38)
(assert
 z_0_40)
(assert
 z_0_41)
(assert
 z_0_42)
(assert
 z_0_50)
(assert
 z_0_51)
(assert
 z_0_52)
(assert
 z_0_56)
(assert
 z_0_58)
(assert
 z_0_60)
(assert
 z_0_61)
(assert
 z_0_63)
(assert
 z_0_64)
(assert
 z_0_67)
(assert
 z_0_69)
(assert
 z_0_70)
(assert
 z_0_72)
(assert
 z_0_73)
(assert
 z_0_76)
(assert
 z_0_77)
(assert
 z_0_78)
(assert
 z_0_80)
(assert
 z_0_81)
(assert
 z_0_83)
(check-sat)

